src/asp/benchmarks/large9.lp
citta(perugia).
citta(marsciano).
citta(orvieto).
citta(castiglione_del_lago).
citta(spoleto).
citta(umbertide).
citta(assisi).
citta(bastia_umbra).
citta(citta_di_castello).
citta(todi).
citta(magione).
citta(terni).
citta(gualdo_tardino).
citta(amelia).
citta(corciano).
citta(foligno).
citta(san_giustino).
citta(narni).
citta(gubbio).

richiesta(perugia, strade, 0).
richiesta(perugia, fiumi, 23).
richiesta(perugia, scuole, 5).
richiesta(perugia, parchi, 3).
richiesta(perugia, energia, 11).

richiesta(marsciano, strade, 9).
richiesta(marsciano, fiumi, 12).
richiesta(marsciano, scuole, 12).
richiesta(marsciano, parchi, 28).
richiesta(marsciano, energia, 12).

richiesta(orvieto, strade, 10).
richiesta(orvieto, fiumi, 2).
richiesta(orvieto, scuole, 11).
richiesta(orvieto, parchi, 5).
richiesta(orvieto, energia, 2).

richiesta(castiglione_del_lago, strade, 11).
richiesta(castiglione_del_lago, fiumi, 7).
richiesta(castiglione_del_lago, scuole, 4).
richiesta(castiglione_del_lago, parchi, 24).
richiesta(castiglione_del_lago, energia, 0).

richiesta(spoleto, strade, 1).
richiesta(spoleto, fiumi, 16).
richiesta(spoleto, scuole, 18).
richiesta(spoleto, parchi, 0).
richiesta(spoleto, energia, 9).

richiesta(umbertide, strade, 2).
richiesta(umbertide, fiumi, 1).
richiesta(umbertide, scuole, 0).
richiesta(umbertide, parchi, 1).
richiesta(umbertide, energia, 1).

richiesta(assisi, strade, 5).
richiesta(assisi, fiumi, 17).
richiesta(assisi, scuole, 6).
richiesta(assisi, parchi, 9).
richiesta(assisi, energia, 17).

richiesta(bastia_umbra, strade, 19).
richiesta(bastia_umbra, fiumi, 4).
richiesta(bastia_umbra, scuole, 4).
richiesta(bastia_umbra, parchi, 4).
richiesta(bastia_umbra, energia, 8).

richiesta(citta_di_castello, strade, 3).
richiesta(citta_di_castello, fiumi, 8).
richiesta(citta_di_castello, scuole, 26).
richiesta(citta_di_castello, parchi, 21).
richiesta(citta_di_castello, energia, 16).

richiesta(todi, strade, 4).
richiesta(todi, fiumi, 13).
richiesta(todi, scuole, 9).
richiesta(todi, parchi, 22).
richiesta(todi, energia, 15).

richiesta(magione, strade, 17).
richiesta(magione, fiumi, 1).
richiesta(magione, scuole, 20).
richiesta(magione, parchi, 12).
richiesta(magione, energia, 14).

richiesta(terni, strade, 11).
richiesta(terni, fiumi, 1).
richiesta(terni, scuole, 8).
richiesta(terni, parchi, 27).
richiesta(terni, energia, 26).

richiesta(gualdo_tardino, strade, 4).
richiesta(gualdo_tardino, fiumi, 0).
richiesta(gualdo_tardino, scuole, 6).
richiesta(gualdo_tardino, parchi, 0).
richiesta(gualdo_tardino, energia, 37).

richiesta(amelia, strade, 12).
richiesta(amelia, fiumi, 7).
richiesta(amelia, scuole, 10).
richiesta(amelia, parchi, 30).
richiesta(amelia, energia, 15).

richiesta(corciano, strade, 9).
richiesta(corciano, fiumi, 3).
richiesta(corciano, scuole, 2).
richiesta(corciano, parchi, 1).
richiesta(corciano, energia, 1).

richiesta(foligno, strade, 9).
richiesta(foligno, fiumi, 1).
richiesta(foligno, scuole, 22).
richiesta(foligno, parchi, 1).
richiesta(foligno, energia, 7).

richiesta(san_giustino, strade, 34).
richiesta(san_giustino, fiumi, 14).
richiesta(san_giustino, scuole, 1).
richiesta(san_giustino, parchi, 5).
richiesta(san_giustino, energia, 18).

richiesta(narni, strade, 2).
richiesta(narni, fiumi, 29).
richiesta(narni, scuole, 3).
richiesta(narni, parchi, 13).
richiesta(narni, energia, 9).

richiesta(gubbio, strade, 19).
richiesta(gubbio, fiumi, 4).
richiesta(gubbio, scuole, 5).
richiesta(gubbio, parchi, 11).
richiesta(gubbio, energia, 8).

