src/minizinc/benchmarks/large9.dzn
COMUNI = {
	assisi,
	corciano,
	spoleto,
	todi,
	castiglione_del_lago,
	amelia,
	terni,
	gubbio,
	san_giustino,
	bastia_umbra,
	umbertide,
	orvieto,
	marsciano,
	perugia,
	narni,
	magione,
	gualdo_tardino,
	citta_di_castello,
	foligno,
};

NUMERO_COMUNI = 19;

ABITANTI_PER_COMUNE = [27, 21, 36, 15, 15, 11, 106, 30, 11, 21, 16, 19, 18, 161, 17, 14, 14, 38, 55];

STRADE_TRA_COMUNI = [|
	false, false, false, false, false, false, false, false, false, true, false, false, false, false, false, false, false, false, true |
	false, false, false, false, false, false, false, false, false, false, false, false, false, true, false, true, false, false, false |
	false, false, false, false, false, false, true, false, false, false, false, false, false, false, false, false, false, false, false |
	false, false, false, false, false, true, false, false, false, false, false, true, true, false, false, false, false, false, false |
	false, false, false, false, false, false, false, false, false, false, false, false, false, false, false, true, false, false, false |
	false, false, false, true, false, false, false, false, false, false, false, false, false, false, true, false, false, false, false |
	false, false, true, false, false, false, false, false, false, false, false, false, false, false, true, false, false, false, false |
	false, false, false, false, false, false, false, false, false, false, true, false, false, false, false, false, true, false, false |
	false, false, false, false, false, false, false, false, false, false, false, false, false, false, false, false, false, true, false |
	true, false, false, false, false, false, false, false, false, false, false, false, false, true, false, false, false, false, false |
	false, false, false, false, false, false, false, true, false, false, false, false, false, true, false, false, false, true, false |
	false, false, false, true, false, false, false, false, false, false, false, false, false, false, false, false, false, false, false |
	false, false, false, true, false, false, false, false, false, false, false, false, false, true, false, false, false, false, false |
	false, true, false, false, false, false, false, false, false, true, true, false, true, false, false, false, false, false, false |
	false, false, false, false, false, true, true, false, false, false, false, false, false, false, false, false, false, false, false |
	false, true, false, false, true, false, false, false, false, false, false, false, false, false, false, false, false, false, false |
	false, false, false, false, false, false, false, true, false, false, false, false, false, false, false, false, false, false, false |
	false, false, false, false, false, false, false, false, true, false, true, false, false, false, false, false, false, false, false |
	true, false, false, false, false, false, false, false, false, false, false, false, false, false, false, false, false, false, false |
|];

RICHIESTE = [|
	24, 35, 3, 23, 9 |
	7, 32, 19, 1, 10 |
	17, 17, 3, 36, 14 |
	20, 15, 19, 22, 0 |
	1, 2, 5, 27, 15 |
	3, 6, 19, 8, 4 |
	4, 2, 10, 25, 9 |
	0, 3, 19, 0, 4 |
	6, 3, 5, 14, 4 |
	14, 1, 13, 6, 4 |
	12, 4, 2, 26, 3 |
	6, 14, 0, 11, 1 |
	4, 14, 11, 4, 15 |
	9, 0, 2, 22, 18 |
	4, 6, 7, 14, 25 |
	7, 3, 6, 4, 9 |
	16, 7, 8, 13, 2 |
	10, 0, 2, 1, 14 |
	12, 32, 2, 6, 6 |
|];
